webassembly/ejemplos_dzn/folder5_json_39.dzn
TERM = { '.', 's(2)', 'in_1', 'in_2', 'in_4', 'in_3', 's(1)', 's(0)', 'in_5', 'in_0'};
null = '.';
s = 5;
n = 11;
ndeps = 3;
max_registers_sz = 3;
NR = 0;
registers = [| |];
dependencies = [|'i32.store8_0', 'i32.load8_s_2', |'i32.load8_s_2', 'i32.store8_3', |'i32.store8_3', 'i32.load8_s_4'|];
GET_ENUM = { GET1, GET2, GET3};
SET_ENUM = { SET1, SET2, SET3};
TEE_ENUM = { TEE1, TEE2, TEE3};
N = 5;
OP = { 'i32.store8_0', 'i32.add_0', 'i32.load8_s_2', 'i32.store8_3', 'i32.load8_s_4' };
in_ops = [2, 2, 1, 2, 1 ];
out_ops = [0, 1, 1, 0, 1 ];
in1 = ['in_0', 'in_2', 's(0)', 's(1)', 'in_5' ];
in2 = ['in_1', 'in_3', '.', 'in_4', '.' ];
in3 = ['.', '.', '.', '.', '.' ];
out1 = ['.', 's(0)', 's(1)', '.', 's(2)' ];
out2 = ['.', '.', '.', '.', '.' ];
out3 = ['.', '.', '.', '.', '.' ];
comm = [false, true, false, false, false ];
gas = [1, 1, 1, 1, 1 ];
sz = [1, 1, 1, 1, 1 ];
stor = [true, false, false, true, false ];
lb = [ 1, 1, 1, 1, 1 ];
ub = [ 5, 5, 5, 5, 5 ];
startstack = [ 'in_0', 'in_1', 'in_2', 'in_3', 'in_4', 'in_5', null, null, null, null, null ];
endstack = [ 's(2)', null, null, null, null, null, null, null, null, null, null ];
