webassembly/ejemplos_results/5/folder5_json_39.txt
value = 5;
fgas = [1, 1, 1, 1, 1];
fsize = [1, 1, 1, 1, 1];
states = 
[|   in_0, in_1, in_2, in_3, in_4, in_5, '.', '.', '.', '.', '.'
 |   in_2, in_3, in_4, in_5,  '.',  '.', '.', '.', '.', '.', '.'
 | 's(0)', in_4, in_5,  '.',  '.',  '.', '.', '.', '.', '.', '.'
 | 's(1)', in_4, in_5,  '.',  '.',  '.', '.', '.', '.', '.', '.'
 |   in_5,  '.',  '.',  '.',  '.',  '.', '.', '.', '.', '.', '.'
 | 's(2)',  '.',  '.',  '.',  '.',  '.', '.', '.', '.', '.', '.'
 |];
register_states = 
[| '.', '.', '.'
 | '.', '.', '.'
 | '.', '.', '.'
 | '.', '.', '.'
 | '.', '.', '.'
 | '.', '.', '.'
 |];
program = [O('i32.store8_0'), O('i32.add_0'), O('i32.load8_s_2'), O('i32.store8_3'), O('i32.load8_s_4')];
% time elapsed: 0.07 s
----------
==========
% time elapsed: 0.07 s
% [value > 4]
